
n_days = 42;
n_roads = 5;      
n_centers = 1;    
n_worksheets = 3; 
n_activities = 9;  
n_road_sets = 0;  
n_precede = 1;
PERTUBATION=  [|39,39,39,39,39,39,39,39,39,39,39,39,39,39,39,39,39,39,39,39,39,39,39,39,39,39,39,39,39,39,39,39,39,39,39,39,39,39,39,39,39,39|31,31,31,31,31,31,31,31,31,31,31,31,31,31,31,31,31,31,31,31,31,31,31,31,31,31,31,31,31,31,31,31,31,31,31,31,31,31,31,31,31,31|24,24,24,24,24,24,24,24,24,24,24,24,24,24,24,24,24,24,24,24,24,24,24,24,24,24,24,24,24,24,24,24,24,24,24,24,24,24,24,24,24,24|23,23,23,23,23,23,23,23,23,23,23,23,23,23,23,23,23,23,23,23,23,23,23,23,23,23,23,23,23,23,23,23,23,23,23,23,23,23,23,23,23,23|25,25,25,25,25,25,25,25,25,25,25,25,25,25,25,25,25,25,25,25,25,25,25,25,25,25,25,25,25,25,25,25,25,25,25,25,25,25,25,25,25,2|];
USED_CENTER= [1,1,1];
MANDATORY= [0,0,0];
IMPORTANCE= [94,55,15];
EST= [1,1,1];
LST= [40,40,40];
DURATION= [3,3,3];
MAX_CLOSED =[];
ROAD_CLOSE =[];
PRECEDE= [|2,3|];
MAX_CAPACITY = [117];
W_TO_A = [|1,2,3,0,0,0,0,0,0|0,0,0,1,2,3,0,0,0|0,0,0,0,0,0,1,2,3|];
WORKERS_NEEDED = [8,8,17,19,13,20,6,7,16];
USED_ROADS = [1,4,4,2,3,2,3,2,1];
ACTIVITY_CENTER = [1,1,1,1,1,1,1,1,1];
ROAD_ACTIVITIES = [{1,9},{4,6,8},{5,7},{2,3},{}];
